################################################################################
units           real
pair_style      lj/cut 12.0
atom_style      full
bond_style      harmonic
angle_style     harmonic
dihedral_style  fourier
improper_style  cvff
special_bonds   amber

dimension       3
boundary        p p p
neigh_modify    every 1 delay 0 check yes
neighbor        0.3 bin
read_data       sys_init.lmps
################################################################################
velocity        all create 300.0 4928459 rot yes dist gaussian
molecule        post post_0_mol.data max_special 1000

